(set-info :smt-lib-version 2.6)
(set-logic BV)
(set-info :source | This formula encodes a component-based program synthesis query from the paper "Synthesis of Loop-free Programs" by Susmit Jha et al.. This formula was translated by Markus N. Rabe.|)
(set-info :status sat)
(declare-const input1vline (_ BitVec 5))
(declare-const op1vline (_ BitVec 5))
(declare-const op2vline (_ BitVec 5))
(declare-const op3vline (_ BitVec 5))
(declare-const op4vline (_ BitVec 5))
(declare-const op5vline (_ BitVec 5))
(declare-const op6vline (_ BitVec 5))
(declare-const op7vline (_ BitVec 5))
(declare-const op8vline (_ BitVec 5))
(declare-const output1vline (_ BitVec 5))
(declare-const ip11vline (_ BitVec 5))
(declare-const ip12vline (_ BitVec 5))
(declare-const ip21vline (_ BitVec 5))
(declare-const ip22vline (_ BitVec 5))
(declare-const ip31vline (_ BitVec 5))
(declare-const ip32vline (_ BitVec 5))
(declare-const ip41vline (_ BitVec 5))
(declare-const ip51vline (_ BitVec 5))
(declare-const ip61vline (_ BitVec 5))
(declare-const ip62vline (_ BitVec 5))
(declare-const ip71vline (_ BitVec 5))
(declare-const ip81vline (_ BitVec 5))
(assert(forall (
        (input1v (_ BitVec 4)))
(exists (
        (output1v (_ BitVec 4))
        (output2v (_ BitVec 4))
        (ip11v (_ BitVec 4))
        (ip12v (_ BitVec 4))
        (op1v (_ BitVec 4))
        (ip21v (_ BitVec 4))
        (ip22v (_ BitVec 4))
        (op2v (_ BitVec 4))
        (ip31v (_ BitVec 4))
        (ip32v (_ BitVec 4))
        (op3v (_ BitVec 4))
        (ip41v (_ BitVec 4))
        (op4v (_ BitVec 4))
        (ip51v (_ BitVec 4))
        (op5v (_ BitVec 4))
        (ip61v (_ BitVec 4))
        (ip62v (_ BitVec 4))
        (op6v (_ BitVec 4))
        (ip71v (_ BitVec 4))
        (op7v (_ BitVec 4))
        (ip81v (_ BitVec 4))
        (op8v (_ BitVec 4))
        (sin0v (_ BitVec 1))
        (sin1v (_ BitVec 1))
        (sin2v (_ BitVec 1))
        (sin3v (_ BitVec 1))
        (sout0v (_ BitVec 1))
        (sout1v (_ BitVec 1))
        (sout2v (_ BitVec 1))
        (sout3v (_ BitVec 1)))
    (and
        (and (and	(= op1v (bvand ip11v ip12v))	(= op2v (bvand ip21v ip22v))	(= op3v (bvor ip31v ip32v))	(= op4v (bvnot ip41v))	(= op5v (bvneg ip51v))	(= op6v (bvxor ip61v ip62v))	(= op7v (bvadd ip71v (_ bv1 4)))	(= op8v (bvsub ip81v (_ bv1 4)))	)	 (and	(not (= input1vline op1vline))	(not (= input1vline op2vline))	(not (= input1vline op3vline))	(not (= input1vline op4vline))	(not (= input1vline op5vline))	(not (= input1vline op6vline))	(not (= input1vline op7vline))	(not (= input1vline op8vline))	(not (= op1vline input1vline))	(not (= op1vline op2vline))	(not (= op1vline op3vline))	(not (= op1vline op4vline))	(not (= op1vline op5vline))	(not (= op1vline op6vline))	(not (= op1vline op7vline))	(not (= op1vline op8vline))	(not (= op2vline input1vline))	(not (= op2vline op1vline))	(not (= op2vline op3vline))	(not (= op2vline op4vline))	(not (= op2vline op5vline))	(not (= op2vline op6vline))	(not (= op2vline op7vline))	(not (= op2vline op8vline))	(not (= op3vline input1vline))	(not (= op3vline op1vline))	(not (= op3vline op2vline))	(not (= op3vline op4vline))	(not (= op3vline op5vline))	(not (= op3vline op6vline))	(not (= op3vline op7vline))	(not (= op3vline op8vline))	(not (= op4vline input1vline))	(not (= op4vline op1vline))	(not (= op4vline op2vline))	(not (= op4vline op3vline))	(not (= op4vline op5vline))	(not (= op4vline op6vline))	(not (= op4vline op7vline))	(not (= op4vline op8vline))	(not (= op5vline input1vline))	(not (= op5vline op1vline))	(not (= op5vline op2vline))	(not (= op5vline op3vline))	(not (= op5vline op4vline))	(not (= op5vline op6vline))	(not (= op5vline op7vline))	(not (= op5vline op8vline))	(not (= op6vline input1vline))	(not (= op6vline op1vline))	(not (= op6vline op2vline))	(not (= op6vline op3vline))	(not (= op6vline op4vline))	(not (= op6vline op5vline))	(not (= op6vline op7vline))	(not (= op6vline op8vline))	(not (= op7vline input1vline))	(not (= op7vline op1vline))	(not (= op7vline op2vline))	(not (= op7vline op3vline))	(not (= op7vline op4vline))	(not (= op7vline op5vline))	(not (= op7vline op6vline))	(not (= op7vline op8vline))	(not (= op8vline input1vline))	(not (= op8vline op1vline))	(not (= op8vline op2vline))	(not (= op8vline op3vline))	(not (= op8vline op4vline))	(not (= op8vline op5vline))	(not (= op8vline op6vline))	(not (= op8vline op7vline))	(bvult ip11vline op1vline)	(bvult ip12vline op1vline)	(bvult ip21vline op2vline)	(bvult ip22vline op2vline)	(bvult ip31vline op3vline)	(bvult ip32vline op3vline)	(bvult ip41vline op4vline)	(bvult ip51vline op5vline)	(bvult ip61vline op6vline)	(bvult ip62vline op6vline)	(bvult ip71vline op7vline)	(bvult ip81vline op8vline)	(=> (= input1vline output1vline) (= input1v output1v))	(=> (= input1vline ip11vline) (= input1v ip11v))	(=> (= input1vline ip12vline) (= input1v ip12v))	(=> (= input1vline ip21vline) (= input1v ip21v))	(=> (= input1vline ip22vline) (= input1v ip22v))	(=> (= input1vline ip31vline) (= input1v ip31v))	(=> (= input1vline ip32vline) (= input1v ip32v))	(=> (= input1vline ip41vline) (= input1v ip41v))	(=> (= input1vline ip51vline) (= input1v ip51v))	(=> (= input1vline ip61vline) (= input1v ip61v))	(=> (= input1vline ip62vline) (= input1v ip62v))	(=> (= input1vline ip71vline) (= input1v ip71v))	(=> (= input1vline ip81vline) (= input1v ip81v))	(=> (= op1vline output1vline) (= op1v output1v))	(=> (= op1vline ip11vline) (= op1v ip11v))	(=> (= op1vline ip12vline) (= op1v ip12v))	(=> (= op1vline ip21vline) (= op1v ip21v))	(=> (= op1vline ip22vline) (= op1v ip22v))	(=> (= op1vline ip31vline) (= op1v ip31v))	(=> (= op1vline ip32vline) (= op1v ip32v))	(=> (= op1vline ip41vline) (= op1v ip41v))	(=> (= op1vline ip51vline) (= op1v ip51v))	(=> (= op1vline ip61vline) (= op1v ip61v))	(=> (= op1vline ip62vline) (= op1v ip62v))	(=> (= op1vline ip71vline) (= op1v ip71v))	(=> (= op1vline ip81vline) (= op1v ip81v))	(=> (= op2vline output1vline) (= op2v output1v))	(=> (= op2vline ip11vline) (= op2v ip11v))	(=> (= op2vline ip12vline) (= op2v ip12v))	(=> (= op2vline ip21vline) (= op2v ip21v))	(=> (= op2vline ip22vline) (= op2v ip22v))	(=> (= op2vline ip31vline) (= op2v ip31v))	(=> (= op2vline ip32vline) (= op2v ip32v))	(=> (= op2vline ip41vline) (= op2v ip41v))	(=> (= op2vline ip51vline) (= op2v ip51v))	(=> (= op2vline ip61vline) (= op2v ip61v))	(=> (= op2vline ip62vline) (= op2v ip62v))	(=> (= op2vline ip71vline) (= op2v ip71v))	(=> (= op2vline ip81vline) (= op2v ip81v))	(=> (= op3vline output1vline) (= op3v output1v))	(=> (= op3vline ip11vline) (= op3v ip11v))	(=> (= op3vline ip12vline) (= op3v ip12v))	(=> (= op3vline ip21vline) (= op3v ip21v))	(=> (= op3vline ip22vline) (= op3v ip22v))	(=> (= op3vline ip31vline) (= op3v ip31v))	(=> (= op3vline ip32vline) (= op3v ip32v))	(=> (= op3vline ip41vline) (= op3v ip41v))	(=> (= op3vline ip51vline) (= op3v ip51v))	(=> (= op3vline ip61vline) (= op3v ip61v))	(=> (= op3vline ip62vline) (= op3v ip62v))	(=> (= op3vline ip71vline) (= op3v ip71v))	(=> (= op3vline ip81vline) (= op3v ip81v))	(=> (= op4vline output1vline) (= op4v output1v))	(=> (= op4vline ip11vline) (= op4v ip11v))	(=> (= op4vline ip12vline) (= op4v ip12v))	(=> (= op4vline ip21vline) (= op4v ip21v))	(=> (= op4vline ip22vline) (= op4v ip22v))	(=> (= op4vline ip31vline) (= op4v ip31v))	(=> (= op4vline ip32vline) (= op4v ip32v))	(=> (= op4vline ip41vline) (= op4v ip41v))	(=> (= op4vline ip51vline) (= op4v ip51v))	(=> (= op4vline ip61vline) (= op4v ip61v))	(=> (= op4vline ip62vline) (= op4v ip62v))	(=> (= op4vline ip71vline) (= op4v ip71v))	(=> (= op4vline ip81vline) (= op4v ip81v))	(=> (= op5vline output1vline) (= op5v output1v))	(=> (= op5vline ip11vline) (= op5v ip11v))	(=> (= op5vline ip12vline) (= op5v ip12v))	(=> (= op5vline ip21vline) (= op5v ip21v))	(=> (= op5vline ip22vline) (= op5v ip22v))	(=> (= op5vline ip31vline) (= op5v ip31v))	(=> (= op5vline ip32vline) (= op5v ip32v))	(=> (= op5vline ip41vline) (= op5v ip41v))	(=> (= op5vline ip51vline) (= op5v ip51v))	(=> (= op5vline ip61vline) (= op5v ip61v))	(=> (= op5vline ip62vline) (= op5v ip62v))	(=> (= op5vline ip71vline) (= op5v ip71v))	(=> (= op5vline ip81vline) (= op5v ip81v))	(=> (= op6vline output1vline) (= op6v output1v))	(=> (= op6vline ip11vline) (= op6v ip11v))	(=> (= op6vline ip12vline) (= op6v ip12v))	(=> (= op6vline ip21vline) (= op6v ip21v))	(=> (= op6vline ip22vline) (= op6v ip22v))	(=> (= op6vline ip31vline) (= op6v ip31v))	(=> (= op6vline ip32vline) (= op6v ip32v))	(=> (= op6vline ip41vline) (= op6v ip41v))	(=> (= op6vline ip51vline) (= op6v ip51v))	(=> (= op6vline ip61vline) (= op6v ip61v))	(=> (= op6vline ip62vline) (= op6v ip62v))	(=> (= op6vline ip71vline) (= op6v ip71v))	(=> (= op6vline ip81vline) (= op6v ip81v))	(=> (= op7vline output1vline) (= op7v output1v))	(=> (= op7vline ip11vline) (= op7v ip11v))	(=> (= op7vline ip12vline) (= op7v ip12v))	(=> (= op7vline ip21vline) (= op7v ip21v))	(=> (= op7vline ip22vline) (= op7v ip22v))	(=> (= op7vline ip31vline) (= op7v ip31v))	(=> (= op7vline ip32vline) (= op7v ip32v))	(=> (= op7vline ip41vline) (= op7v ip41v))	(=> (= op7vline ip51vline) (= op7v ip51v))	(=> (= op7vline ip61vline) (= op7v ip61v))	(=> (= op7vline ip62vline) (= op7v ip62v))	(=> (= op7vline ip71vline) (= op7v ip71v))	(=> (= op7vline ip81vline) (= op7v ip81v))	(=> (= op8vline output1vline) (= op8v output1v))	(=> (= op8vline ip11vline) (= op8v ip11v))	(=> (= op8vline ip12vline) (= op8v ip12v))	(=> (= op8vline ip21vline) (= op8v ip21v))	(=> (= op8vline ip22vline) (= op8v ip22v))	(=> (= op8vline ip31vline) (= op8v ip31v))	(=> (= op8vline ip32vline) (= op8v ip32v))	(=> (= op8vline ip41vline) (= op8v ip41v))	(=> (= op8vline ip51vline) (= op8v ip51v))	(=> (= op8vline ip61vline) (= op8v ip61v))	(=> (= op8vline ip62vline) (= op8v ip62v))	(=> (= op8vline ip71vline) (= op8v ip71v))	(=> (= op8vline ip81vline) (= op8v ip81v))	(=> (= output1vline output1vline) (= output1v output1v))	(=> (= output1vline ip11vline) (= output1v ip11v))	(=> (= output1vline ip12vline) (= output1v ip12v))	(=> (= output1vline ip21vline) (= output1v ip21v))	(=> (= output1vline ip22vline) (= output1v ip22v))	(=> (= output1vline ip31vline) (= output1v ip31v))	(=> (= output1vline ip32vline) (= output1v ip32v))	(=> (= output1vline ip41vline) (= output1v ip41v))	(=> (= output1vline ip51vline) (= output1v ip51v))	(=> (= output1vline ip61vline) (= output1v ip61v))	(=> (= output1vline ip62vline) (= output1v ip62v))	(=> (= output1vline ip71vline) (= output1v ip71v))	(=> (= output1vline ip81vline) (= output1v ip81v))	(=> (= ip11vline output1vline) (= ip11v output1v))	(=> (= ip11vline ip11vline) (= ip11v ip11v))	(=> (= ip11vline ip12vline) (= ip11v ip12v))	(=> (= ip11vline ip21vline) (= ip11v ip21v))	(=> (= ip11vline ip22vline) (= ip11v ip22v))	(=> (= ip11vline ip31vline) (= ip11v ip31v))	(=> (= ip11vline ip32vline) (= ip11v ip32v))	(=> (= ip11vline ip41vline) (= ip11v ip41v))	(=> (= ip11vline ip51vline) (= ip11v ip51v))	(=> (= ip11vline ip61vline) (= ip11v ip61v))	(=> (= ip11vline ip62vline) (= ip11v ip62v))	(=> (= ip11vline ip71vline) (= ip11v ip71v))	(=> (= ip11vline ip81vline) (= ip11v ip81v))	(=> (= ip12vline output1vline) (= ip12v output1v))	(=> (= ip12vline ip11vline) (= ip12v ip11v))	(=> (= ip12vline ip12vline) (= ip12v ip12v))	(=> (= ip12vline ip21vline) (= ip12v ip21v))	(=> (= ip12vline ip22vline) (= ip12v ip22v))	(=> (= ip12vline ip31vline) (= ip12v ip31v))	(=> (= ip12vline ip32vline) (= ip12v ip32v))	(=> (= ip12vline ip41vline) (= ip12v ip41v))	(=> (= ip12vline ip51vline) (= ip12v ip51v))	(=> (= ip12vline ip61vline) (= ip12v ip61v))	(=> (= ip12vline ip62vline) (= ip12v ip62v))	(=> (= ip12vline ip71vline) (= ip12v ip71v))	(=> (= ip12vline ip81vline) (= ip12v ip81v))	(=> (= ip21vline output1vline) (= ip21v output1v))	(=> (= ip21vline ip11vline) (= ip21v ip11v))	(=> (= ip21vline ip12vline) (= ip21v ip12v))	(=> (= ip21vline ip21vline) (= ip21v ip21v))	(=> (= ip21vline ip22vline) (= ip21v ip22v))	(=> (= ip21vline ip31vline) (= ip21v ip31v))	(=> (= ip21vline ip32vline) (= ip21v ip32v))	(=> (= ip21vline ip41vline) (= ip21v ip41v))	(=> (= ip21vline ip51vline) (= ip21v ip51v))	(=> (= ip21vline ip61vline) (= ip21v ip61v))	(=> (= ip21vline ip62vline) (= ip21v ip62v))	(=> (= ip21vline ip71vline) (= ip21v ip71v))	(=> (= ip21vline ip81vline) (= ip21v ip81v))	(=> (= ip22vline output1vline) (= ip22v output1v))	(=> (= ip22vline ip11vline) (= ip22v ip11v))	(=> (= ip22vline ip12vline) (= ip22v ip12v))	(=> (= ip22vline ip21vline) (= ip22v ip21v))	(=> (= ip22vline ip22vline) (= ip22v ip22v))	(=> (= ip22vline ip31vline) (= ip22v ip31v))	(=> (= ip22vline ip32vline) (= ip22v ip32v))	(=> (= ip22vline ip41vline) (= ip22v ip41v))	(=> (= ip22vline ip51vline) (= ip22v ip51v))	(=> (= ip22vline ip61vline) (= ip22v ip61v))	(=> (= ip22vline ip62vline) (= ip22v ip62v))	(=> (= ip22vline ip71vline) (= ip22v ip71v))	(=> (= ip22vline ip81vline) (= ip22v ip81v))	(=> (= ip31vline output1vline) (= ip31v output1v))	(=> (= ip31vline ip11vline) (= ip31v ip11v))	(=> (= ip31vline ip12vline) (= ip31v ip12v))	(=> (= ip31vline ip21vline) (= ip31v ip21v))	(=> (= ip31vline ip22vline) (= ip31v ip22v))	(=> (= ip31vline ip31vline) (= ip31v ip31v))	(=> (= ip31vline ip32vline) (= ip31v ip32v))	(=> (= ip31vline ip41vline) (= ip31v ip41v))	(=> (= ip31vline ip51vline) (= ip31v ip51v))	(=> (= ip31vline ip61vline) (= ip31v ip61v))	(=> (= ip31vline ip62vline) (= ip31v ip62v))	(=> (= ip31vline ip71vline) (= ip31v ip71v))	(=> (= ip31vline ip81vline) (= ip31v ip81v))	(=> (= ip32vline output1vline) (= ip32v output1v))	(=> (= ip32vline ip11vline) (= ip32v ip11v))	(=> (= ip32vline ip12vline) (= ip32v ip12v))	(=> (= ip32vline ip21vline) (= ip32v ip21v))	(=> (= ip32vline ip22vline) (= ip32v ip22v))	(=> (= ip32vline ip31vline) (= ip32v ip31v))	(=> (= ip32vline ip32vline) (= ip32v ip32v))	(=> (= ip32vline ip41vline) (= ip32v ip41v))	(=> (= ip32vline ip51vline) (= ip32v ip51v))	(=> (= ip32vline ip61vline) (= ip32v ip61v))	(=> (= ip32vline ip62vline) (= ip32v ip62v))	(=> (= ip32vline ip71vline) (= ip32v ip71v))	(=> (= ip32vline ip81vline) (= ip32v ip81v))	(=> (= ip41vline output1vline) (= ip41v output1v))	(=> (= ip41vline ip11vline) (= ip41v ip11v))	(=> (= ip41vline ip12vline) (= ip41v ip12v))	(=> (= ip41vline ip21vline) (= ip41v ip21v))	(=> (= ip41vline ip22vline) (= ip41v ip22v))	(=> (= ip41vline ip31vline) (= ip41v ip31v))	(=> (= ip41vline ip32vline) (= ip41v ip32v))	(=> (= ip41vline ip41vline) (= ip41v ip41v))	(=> (= ip41vline ip51vline) (= ip41v ip51v))	(=> (= ip41vline ip61vline) (= ip41v ip61v))	(=> (= ip41vline ip62vline) (= ip41v ip62v))	(=> (= ip41vline ip71vline) (= ip41v ip71v))	(=> (= ip41vline ip81vline) (= ip41v ip81v))	(=> (= ip51vline output1vline) (= ip51v output1v))	(=> (= ip51vline ip11vline) (= ip51v ip11v))	(=> (= ip51vline ip12vline) (= ip51v ip12v))	(=> (= ip51vline ip21vline) (= ip51v ip21v))	(=> (= ip51vline ip22vline) (= ip51v ip22v))	(=> (= ip51vline ip31vline) (= ip51v ip31v))	(=> (= ip51vline ip32vline) (= ip51v ip32v))	(=> (= ip51vline ip41vline) (= ip51v ip41v))	(=> (= ip51vline ip51vline) (= ip51v ip51v))	(=> (= ip51vline ip61vline) (= ip51v ip61v))	(=> (= ip51vline ip62vline) (= ip51v ip62v))	(=> (= ip51vline ip71vline) (= ip51v ip71v))	(=> (= ip51vline ip81vline) (= ip51v ip81v))	(=> (= ip61vline output1vline) (= ip61v output1v))	(=> (= ip61vline ip11vline) (= ip61v ip11v))	(=> (= ip61vline ip12vline) (= ip61v ip12v))	(=> (= ip61vline ip21vline) (= ip61v ip21v))	(=> (= ip61vline ip22vline) (= ip61v ip22v))	(=> (= ip61vline ip31vline) (= ip61v ip31v))	(=> (= ip61vline ip32vline) (= ip61v ip32v))	(=> (= ip61vline ip41vline) (= ip61v ip41v))	(=> (= ip61vline ip51vline) (= ip61v ip51v))	(=> (= ip61vline ip61vline) (= ip61v ip61v))	(=> (= ip61vline ip62vline) (= ip61v ip62v))	(=> (= ip61vline ip71vline) (= ip61v ip71v))	(=> (= ip61vline ip81vline) (= ip61v ip81v))	(=> (= ip62vline output1vline) (= ip62v output1v))	(=> (= ip62vline ip11vline) (= ip62v ip11v))	(=> (= ip62vline ip12vline) (= ip62v ip12v))	(=> (= ip62vline ip21vline) (= ip62v ip21v))	(=> (= ip62vline ip22vline) (= ip62v ip22v))	(=> (= ip62vline ip31vline) (= ip62v ip31v))	(=> (= ip62vline ip32vline) (= ip62v ip32v))	(=> (= ip62vline ip41vline) (= ip62v ip41v))	(=> (= ip62vline ip51vline) (= ip62v ip51v))	(=> (= ip62vline ip61vline) (= ip62v ip61v))	(=> (= ip62vline ip62vline) (= ip62v ip62v))	(=> (= ip62vline ip71vline) (= ip62v ip71v))	(=> (= ip62vline ip81vline) (= ip62v ip81v))	(=> (= ip71vline output1vline) (= ip71v output1v))	(=> (= ip71vline ip11vline) (= ip71v ip11v))	(=> (= ip71vline ip12vline) (= ip71v ip12v))	(=> (= ip71vline ip21vline) (= ip71v ip21v))	(=> (= ip71vline ip22vline) (= ip71v ip22v))	(=> (= ip71vline ip31vline) (= ip71v ip31v))	(=> (= ip71vline ip32vline) (= ip71v ip32v))	(=> (= ip71vline ip41vline) (= ip71v ip41v))	(=> (= ip71vline ip51vline) (= ip71v ip51v))	(=> (= ip71vline ip61vline) (= ip71v ip61v))	(=> (= ip71vline ip62vline) (= ip71v ip62v))	(=> (= ip71vline ip71vline) (= ip71v ip71v))	(=> (= ip71vline ip81vline) (= ip71v ip81v))	(=> (= ip81vline output1vline) (= ip81v output1v))	(=> (= ip81vline ip11vline) (= ip81v ip11v))	(=> (= ip81vline ip12vline) (= ip81v ip12v))	(=> (= ip81vline ip21vline) (= ip81v ip21v))	(=> (= ip81vline ip22vline) (= ip81v ip22v))	(=> (= ip81vline ip31vline) (= ip81v ip31v))	(=> (= ip81vline ip32vline) (= ip81v ip32v))	(=> (= ip81vline ip41vline) (= ip81v ip41v))	(=> (= ip81vline ip51vline) (= ip81v ip51v))	(=> (= ip81vline ip61vline) (= ip81v ip61v))	(=> (= ip81vline ip62vline) (= ip81v ip62v))	(=> (= ip81vline ip71vline) (= ip81v ip71v))	(=> (= ip81vline ip81vline) (= ip81v ip81v))	(or (= output1vline input1vline)(= output1vline op1vline)(= output1vline op2vline)(= output1vline op3vline)(= output1vline op4vline)(= output1vline op5vline)(= output1vline op6vline)(= output1vline op7vline)(= output1vline op8vline))	(or (= ip11vline input1vline)(= ip11vline op1vline)(= ip11vline op2vline)(= ip11vline op3vline)(= ip11vline op4vline)(= ip11vline op5vline)(= ip11vline op6vline)(= ip11vline op7vline)(= ip11vline op8vline))	(or (= ip12vline input1vline)(= ip12vline op1vline)(= ip12vline op2vline)(= ip12vline op3vline)(= ip12vline op4vline)(= ip12vline op5vline)(= ip12vline op6vline)(= ip12vline op7vline)(= ip12vline op8vline))	(or (= ip21vline input1vline)(= ip21vline op1vline)(= ip21vline op2vline)(= ip21vline op3vline)(= ip21vline op4vline)(= ip21vline op5vline)(= ip21vline op6vline)(= ip21vline op7vline)(= ip21vline op8vline))	(or (= ip22vline input1vline)(= ip22vline op1vline)(= ip22vline op2vline)(= ip22vline op3vline)(= ip22vline op4vline)(= ip22vline op5vline)(= ip22vline op6vline)(= ip22vline op7vline)(= ip22vline op8vline))	(or (= ip31vline input1vline)(= ip31vline op1vline)(= ip31vline op2vline)(= ip31vline op3vline)(= ip31vline op4vline)(= ip31vline op5vline)(= ip31vline op6vline)(= ip31vline op7vline)(= ip31vline op8vline))	(or (= ip32vline input1vline)(= ip32vline op1vline)(= ip32vline op2vline)(= ip32vline op3vline)(= ip32vline op4vline)(= ip32vline op5vline)(= ip32vline op6vline)(= ip32vline op7vline)(= ip32vline op8vline))	(or (= ip41vline input1vline)(= ip41vline op1vline)(= ip41vline op2vline)(= ip41vline op3vline)(= ip41vline op4vline)(= ip41vline op5vline)(= ip41vline op6vline)(= ip41vline op7vline)(= ip41vline op8vline))	(or (= ip51vline input1vline)(= ip51vline op1vline)(= ip51vline op2vline)(= ip51vline op3vline)(= ip51vline op4vline)(= ip51vline op5vline)(= ip51vline op6vline)(= ip51vline op7vline)(= ip51vline op8vline))	(or (= ip61vline input1vline)(= ip61vline op1vline)(= ip61vline op2vline)(= ip61vline op3vline)(= ip61vline op4vline)(= ip61vline op5vline)(= ip61vline op6vline)(= ip61vline op7vline)(= ip61vline op8vline))	(or (= ip62vline input1vline)(= ip62vline op1vline)(= ip62vline op2vline)(= ip62vline op3vline)(= ip62vline op4vline)(= ip62vline op5vline)(= ip62vline op6vline)(= ip62vline op7vline)(= ip62vline op8vline))	(or (= ip71vline input1vline)(= ip71vline op1vline)(= ip71vline op2vline)(= ip71vline op3vline)(= ip71vline op4vline)(= ip71vline op5vline)(= ip71vline op6vline)(= ip71vline op7vline)(= ip71vline op8vline))	(or (= ip81vline input1vline)(= ip81vline op1vline)(= ip81vline op2vline)(= ip81vline op3vline)(= ip81vline op4vline)(= ip81vline op5vline)(= ip81vline op6vline)(= ip81vline op7vline)(= ip81vline op8vline))	)	 ( and true  (= sin0v ((_ extract 0 0) input1v))   (= sin1v ((_ extract 1 1) input1v))  (= sin2v ((_ extract 2 2) input1v))  (= sin3v ((_ extract 3 3) input1v))   (= sout0v sin0v)  (= sout1v (ite (= sin0v (_ bv1 1)) (_ bv0 1) sin1v))  (= sout2v (ite (or (= sin0v (_ bv1 1)) (= sin1v (_ bv1 1))) (_ bv0 1) sin2v))  (= sout3v (ite (or (= sin0v (_ bv1 1)) (= sin1v (_ bv1 1)) (= sin2v (_ bv1 1))) (_ bv0 1) sin3v))  (= output2v (concat sout3v (concat sout2v (concat sout1v sout0v))))   ))	
        (= output1v output2v)
))))
(check-sat)
(exit)
